% init_area = 1443;
assign = [47, 18, 41, 43, 42, 48, 43, 46, 43, 43, 48, 48, 43, 41, 45, 42, 46, 42, 45, 42, 41, 47, 23, 32, 48, 17, 24, 25, 16, 15, 14, 21, 13, 45, 46, 40, 17, 27, 20, 28, 39, 24, 40, 39, 6, 12, 21, 14, 8, 16, 11, 10, 35, 32, 28, 22, 20, 15, 9, 4, 18, 7, 34, 23, 3, 28, 31, 26, 39, 2, 44, 19, 22, 31, 38, 38, 34, 33, 33, 36, 36, 26, 37, 25, 27, 1, 35, 44, 44, 30, 30, 30, 19, 4, 3, 2, 1, 5, 29, 29, 7, 13, 12, 11, 10, 9, 8, 6, 5, 37, 47];
objective = 40;
% time elapsed: 0.28 s
----------
assign = [47, 18, 41, 48, 42, 48, 43, 46, 43, 43, 48, 48, 48, 41, 45, 42, 46, 42, 45, 42, 41, 47, 23, 32, 48, 17, 24, 25, 16, 15, 14, 21, 13, 45, 46, 40, 17, 27, 20, 28, 39, 24, 40, 39, 6, 12, 21, 14, 8, 16, 11, 10, 35, 32, 28, 22, 20, 15, 9, 4, 18, 7, 34, 23, 3, 28, 31, 26, 39, 2, 44, 19, 22, 31, 38, 38, 34, 33, 33, 36, 36, 26, 37, 25, 27, 1, 35, 44, 44, 30, 30, 30, 19, 4, 3, 2, 1, 5, 29, 29, 7, 13, 12, 11, 10, 9, 8, 6, 5, 37, 47];
objective = 38;
% time elapsed: 0.28 s
----------
assign = [47, 18, 41, 48, 42, 47, 48, 46, 43, 43, 47, 47, 48, 41, 45, 42, 46, 42, 45, 42, 41, 47, 23, 32, 47, 17, 24, 25, 16, 15, 14, 21, 13, 45, 46, 40, 17, 27, 20, 28, 39, 24, 40, 39, 6, 12, 21, 14, 8, 16, 11, 10, 35, 32, 28, 22, 20, 15, 9, 4, 18, 7, 34, 23, 3, 28, 31, 26, 39, 2, 44, 19, 22, 31, 38, 38, 34, 33, 33, 36, 36, 26, 37, 25, 27, 1, 35, 44, 44, 30, 30, 30, 19, 4, 3, 2, 1, 5, 29, 29, 7, 13, 12, 11, 10, 9, 8, 6, 5, 37, 48];
objective = 34;
% time elapsed: 0.28 s
----------
assign = [47, 18, 41, 48, 42, 47, 48, 45, 43, 43, 47, 47, 48, 41, 46, 42, 45, 42, 46, 42, 41, 47, 23, 32, 47, 17, 24, 25, 16, 15, 14, 21, 13, 45, 46, 40, 17, 27, 20, 28, 39, 24, 40, 39, 6, 12, 21, 14, 8, 16, 11, 10, 35, 32, 28, 22, 20, 15, 9, 4, 18, 7, 34, 23, 3, 28, 31, 26, 39, 2, 44, 19, 22, 31, 38, 38, 34, 33, 33, 36, 36, 26, 37, 25, 27, 1, 35, 44, 44, 30, 30, 30, 19, 4, 3, 2, 1, 5, 29, 29, 7, 13, 12, 11, 10, 9, 8, 6, 5, 37, 48];
objective = 30;
% time elapsed: 0.39 s
----------
assign = [43, 18, 41, 46, 42, 48, 46, 45, 44, 43, 48, 48, 44, 41, 47, 42, 45, 42, 47, 42, 41, 43, 23, 32, 48, 17, 24, 25, 16, 15, 14, 21, 13, 46, 47, 40, 17, 27, 20, 28, 39, 24, 40, 39, 6, 12, 21, 14, 8, 16, 11, 10, 35, 32, 28, 22, 20, 15, 9, 4, 18, 7, 34, 23, 3, 28, 31, 26, 39, 2, 44, 19, 22, 31, 38, 38, 34, 33, 33, 36, 36, 26, 37, 25, 27, 1, 35, 45, 45, 30, 30, 30, 19, 4, 3, 2, 1, 5, 29, 29, 7, 13, 12, 11, 10, 9, 8, 6, 5, 37, 48];
objective = 28;
% time elapsed: 15.36 s
----------
%%%mzn-stat: initTime=0.140386
%%%mzn-stat: solveTime=120.001
%%%mzn-stat: solutions=5
%%%mzn-stat: variables=24530
%%%mzn-stat: propagators=24551
%%%mzn-stat: propagations=957993493
%%%mzn-stat: nodes=2828089
%%%mzn-stat: failures=1413996
%%%mzn-stat: restarts=0
%%%mzn-stat: peakDepth=94
%%%mzn-stat-end
%% copies: 1414095
